% demand
num_movements = 25;
loading_factor = [1850, 1000, 1350, 1350, 1600, 1800, 900, 1950, 2000, 1250, 1900, 1700, 1350, 1400, 1050, 2000, 1250, 1250, 1000, 900, 1850, 1500, 1500, 1200, 1300];
pickup_time = [0, 0, 0, 0, 1, 2, 2, 2, 2, 2, 2, 3, 3, 4, 4, 4, 4, 6, 6, 6, 7, 7, 7, 8, 8];
delivery_time = [2, 1, 2, 1, 2, 7, 3, 3, 3, 3, 3, 6, 7, 8, 6, 6, 7, 7, 8, 9, 8, 9, 8, 9, 9];

% transporter definition
total_capacity = 11000;
num_decks = 4;
capacity = [3000, 3000, 1000, 4000];

% ways out of decks
num_ways_out = 2;
paths_out = array3d(decks, ways_out, decks, [
% ways out of deck d1
2, 4, 0, 0, 3, 4, 0, 0, 

% ways out of deck d2
4, 0, 0, 0, 0, 0, 0, 0,	

% ways out of deck d3
4, 0, 0, 0, 0, 0, 0, 0,	

% ways out of deck d4
0, 0, 0, 0,	0, 0, 0, 0,	

]);

